p tw 176 39601 2 
1 3 
1 4 
1 5 
1 6 
1 7 
1 8 
1 9 
1 10 
1 11 
1 12 
1 13 
1 14 
1 15 
1 16 
1 17 
1 18 
1 19 
1 20 
1 21 
1 22 
1 23 
1 24 
1 25 
1 26 
1 27 
1 28 
1 29 
1 30 
1 31 
1 37 
1 51 
1 61 
1 74 
1 84 
1 92 
1 112 
1 122 
1 123 
1 124 
1 125 
1 126 
1 127 
1 128 
1 129 
2 3 
2 4 
2 5 
2 6 
2 7 
2 8 
2 9 
2 10 
2 11 
2 12 
2 13 
2 14 
2 15 
2 16 
2 17 
2 22 
2 32 
2 33 
2 34 
2 35 
2 36 
2 37 
2 38 
2 39 
2 40 
2 41 
2 42 
2 43 
2 44 
2 45 
2 50 
2 61 
2 73 
2 82 
2 102 
2 103 
2 104 
2 105 
2 106 
2 107 
2 108 
2 109 
2 110 
2 111 
3 4 
3 5 
3 6 
3 7 
3 8 
3 9 
3 10 
3 11 
3 12 
3 13 
3 14 
3 15 
3 16 
3 18 
3 29 
3 32 
3 40 
3 46 
3 47 
3 48 
3 49 
3 50 
3 51 
3 52 
3 53 
3 54 
3 55 
3 56 
3 57 
3 58 
3 70 
3 78 
3 91 
3 95 
3 108 
3 121 
3 128 
3 134 
3 140 
3 145 
3 161 
3 169 
3 172 
4 5 
4 6 
4 7 
4 8 
4 9 
4 10 
4 11 
4 12 
4 13 
4 14 
4 15 
4 16 
4 19 
4 30 
4 33 
4 45 
4 46 
4 53 
4 59 
4 60 
4 61 
4 62 
4 63 
4 64 
4 65 
4 66 
4 67 
4 68 
4 69 
4 70 
4 81 
4 86 
4 97 
4 111 
4 115 
4 129 
4 132 
4 150 
4 167 
4 169 
4 170 
4 173 
5 6 
5 7 
5 8 
5 9 
5 10 
5 11 
5 12 
5 13 
5 14 
5 15 
5 16 
5 17 
5 20 
5 34 
5 47 
5 49 
5 59 
5 62 
5 71 
5 72 
5 73 
5 74 
5 75 
5 76 
5 77 
5 78 
5 79 
5 80 
5 81 
5 83 
5 102 
5 112 
5 113 
5 114 
5 115 
5 116 
5 117 
5 118 
5 119 
5 120 
5 121 
6 7 
6 8 
6 9 
6 10 
6 11 
6 12 
6 13 
6 14 
6 15 
6 16 
6 21 
6 24 
6 33 
6 35 
6 48 
6 54 
6 60 
6 71 
6 77 
6 82 
6 83 
6 84 
6 85 
6 86 
6 87 
6 88 
6 89 
6 90 
6 91 
6 95 
6 105 
6 114 
6 123 
6 130 
6 142 
6 149 
6 150 
6 151 
6 152 
6 153 
7 8 
7 9 
7 10 
7 11 
7 12 
7 13 
7 14 
7 15 
7 16 
7 19 
7 22 
7 36 
7 39 
7 49 
7 53 
7 62 
7 72 
7 76 
7 82 
7 87 
7 92 
7 93 
7 94 
7 95 
7 96 
7 97 
7 98 
7 99 
7 100 
7 101 
7 122 
7 135 
7 142 
7 143 
7 144 
7 145 
7 146 
7 147 
7 148 
8 9 
8 10 
8 11 
8 12 
8 13 
8 14 
8 15 
8 16 
8 23 
8 28 
8 38 
8 45 
8 52 
8 58 
8 63 
8 66 
8 75 
8 80 
8 85 
8 90 
8 93 
8 101 
8 103 
8 107 
8 113 
8 121 
8 122 
8 123 
8 130 
8 131 
8 132 
8 133 
8 134 
8 139 
8 144 
8 155 
8 174 
8 175 
9 10 
9 11 
9 12 
9 13 
9 14 
9 15 
9 16 
9 20 
9 24 
9 32 
9 42 
9 52 
9 64 
9 69 
9 74 
9 86 
9 91 
9 94 
9 101 
9 104 
9 110 
9 113 
9 119 
9 129 
9 135 
9 136 
9 137 
9 138 
9 139 
9 140 
9 141 
9 148 
9 153 
9 156 
9 159 
9 163 
9 164 
10 11 
10 12 
10 13 
10 14 
10 15 
10 16 
10 25 
10 31 
10 35 
10 36 
10 47 
10 55 
10 65 
10 70 
10 78 
10 89 
10 96 
10 104 
10 105 
10 115 
10 120 
10 124 
10 126 
10 131 
10 133 
10 136 
10 143 
10 148 
10 152 
10 154 
10 155 
10 156 
10 157 
10 162 
10 170 
10 175 
11 12 
11 13 
11 14 
11 15 
11 16 
11 26 
11 30 
11 40 
11 43 
11 48 
11 55 
11 64 
11 69 
11 75 
11 79 
11 88 
11 97 
11 100 
11 106 
11 109 
11 112 
11 116 
11 125 
11 133 
11 135 
11 144 
11 149 
11 151 
11 155 
11 157 
11 158 
11 159 
11 165 
11 171 
11 172 
12 13 
12 14 
12 15 
12 16 
12 27 
12 31 
12 37 
12 41 
12 56 
12 57 
12 66 
12 67 
12 79 
12 81 
12 83 
12 85 
12 94 
12 96 
12 102 
12 109 
12 125 
12 134 
12 138 
12 142 
12 143 
12 150 
12 159 
12 160 
12 161 
12 162 
12 163 
12 166 
12 174 
12 176 
13 14 
13 15 
13 16 
13 21 
13 25 
13 34 
13 44 
13 51 
13 54 
13 67 
13 68 
13 72 
13 84 
13 98 
13 107 
13 110 
13 117 
13 120 
13 131 
13 132 
13 137 
13 139 
13 145 
13 147 
13 149 
13 157 
13 160 
13 161 
13 164 
13 165 
13 166 
13 171 
13 173 
14 15 
14 16 
14 26 
14 28 
14 42 
14 43 
14 56 
14 57 
14 63 
14 68 
14 77 
14 80 
14 87 
14 89 
14 92 
14 99 
14 103 
14 108 
14 118 
14 119 
14 126 
14 136 
14 137 
14 146 
14 151 
14 154 
14 158 
14 160 
14 166 
14 167 
14 168 
14 169 
15 16 
15 18 
15 29 
15 38 
15 41 
15 58 
15 59 
15 60 
15 73 
15 90 
15 99 
15 100 
15 106 
15 116 
15 117 
15 124 
15 127 
15 130 
15 138 
15 141 
15 146 
15 147 
15 153 
15 154 
15 162 
15 164 
15 168 
15 170 
15 172 
15 173 
15 176 
16 23 
16 27 
16 39 
16 44 
16 46 
16 50 
16 65 
16 71 
16 76 
16 88 
16 93 
16 98 
16 111 
16 114 
16 118 
16 127 
16 128 
16 140 
16 141 
16 152 
16 156 
16 158 
16 163 
16 165 
16 167 
16 168 
16 171 
16 174 
16 175 
16 176 
17 18 
17 19 
17 20 
17 21 
17 22 
17 23 
17 24 
17 25 
17 26 
17 27 
17 28 
17 29 
17 30 
17 31 
17 32 
17 33 
17 34 
17 35 
17 36 
17 37 
17 38 
17 39 
17 40 
17 41 
17 42 
17 43 
17 44 
17 45 
17 49 
17 62 
17 83 
17 102 
17 112 
17 113 
17 114 
17 115 
17 116 
17 117 
17 118 
17 119 
17 120 
17 121 
18 19 
18 20 
18 21 
18 22 
18 23 
18 24 
18 25 
18 26 
18 27 
18 28 
18 29 
18 30 
18 31 
18 32 
18 38 
18 46 
18 47 
18 48 
18 49 
18 50 
18 51 
18 52 
18 53 
18 54 
18 55 
18 56 
18 57 
18 58 
18 59 
18 90 
18 99 
18 106 
18 117 
18 124 
18 141 
18 146 
18 153 
18 162 
18 172 
18 173 
18 176 
19 20 
19 21 
19 22 
19 23 
19 24 
19 25 
19 26 
19 27 
19 28 
19 29 
19 30 
19 31 
19 33 
19 36 
19 46 
19 49 
19 59 
19 60 
19 61 
19 62 
19 63 
19 64 
19 65 
19 66 
19 67 
19 68 
19 69 
19 70 
19 72 
19 82 
19 92 
19 93 
19 94 
19 95 
19 96 
19 97 
19 98 
19 99 
19 100 
19 101 
20 21 
20 22 
20 23 
20 24 
20 25 
20 26 
20 27 
20 28 
20 29 
20 30 
20 31 
20 34 
20 42 
20 47 
20 52 
20 59 
20 69 
20 71 
20 72 
20 73 
20 74 
20 75 
20 76 
20 77 
20 78 
20 79 
20 80 
20 81 
20 91 
20 101 
20 110 
20 119 
20 129 
20 148 
20 153 
20 156 
20 159 
20 163 
20 164 
21 22 
21 23 
21 24 
21 25 
21 26 
21 27 
21 28 
21 29 
21 30 
21 31 
21 35 
21 44 
21 48 
21 51 
21 60 
21 68 
21 71 
21 72 
21 82 
21 83 
21 84 
21 85 
21 86 
21 87 
21 88 
21 89 
21 90 
21 91 
21 110 
21 120 
21 131 
21 139 
21 147 
21 149 
21 161 
21 166 
21 171 
21 173 
22 23 
22 24 
22 25 
22 26 
22 27 
22 28 
22 29 
22 30 
22 31 
22 39 
22 50 
22 53 
22 61 
22 62 
22 73 
22 76 
22 82 
22 87 
22 102 
22 103 
22 104 
22 105 
22 106 
22 107 
22 108 
22 109 
22 110 
22 111 
22 122 
22 135 
22 142 
22 143 
22 144 
22 145 
22 146 
22 147 
22 148 
23 24 
23 25 
23 26 
23 27 
23 28 
23 29 
23 30 
23 31 
23 38 
23 39 
23 50 
23 52 
23 63 
23 65 
23 71 
23 75 
23 85 
23 93 
23 98 
23 103 
23 113 
23 114 
23 122 
23 127 
23 130 
23 131 
23 132 
23 133 
23 134 
23 140 
23 158 
23 163 
23 167 
23 171 
23 175 
23 176 
24 25 
24 26 
24 27 
24 28 
24 29 
24 30 
24 31 
24 32 
24 33 
24 54 
24 64 
24 74 
24 77 
24 86 
24 94 
24 95 
24 104 
24 105 
24 113 
24 114 
24 123 
24 130 
24 135 
24 136 
24 137 
24 138 
24 139 
24 140 
24 141 
24 142 
24 149 
24 150 
24 151 
24 152 
24 153 
25 26 
25 27 
25 28 
25 29 
25 30 
25 31 
25 34 
25 35 
25 54 
25 55 
25 65 
25 67 
25 78 
25 84 
25 96 
25 98 
25 105 
25 107 
25 115 
25 117 
25 124 
25 131 
25 132 
25 136 
25 137 
25 143 
25 145 
25 154 
25 155 
25 156 
25 157 
25 160 
25 164 
25 165 
26 27 
26 28 
26 29 
26 30 
26 31 
26 40 
26 42 
26 55 
26 56 
26 63 
26 64 
26 75 
26 80 
26 88 
26 89 
26 92 
26 97 
26 106 
26 108 
26 116 
26 118 
26 125 
26 137 
26 144 
26 146 
26 149 
26 151 
26 154 
26 157 
26 158 
26 159 
26 166 
26 167 
27 28 
27 29 
27 30 
27 31 
27 41 
27 44 
27 46 
27 56 
27 66 
27 76 
27 79 
27 85 
27 88 
27 93 
27 94 
27 102 
27 111 
27 118 
27 125 
27 128 
27 141 
27 143 
27 150 
27 152 
27 156 
27 160 
27 161 
27 162 
27 163 
27 165 
27 168 
27 174 
28 29 
28 30 
28 31 
28 43 
28 45 
28 57 
28 58 
28 66 
28 68 
28 77 
28 80 
28 87 
28 90 
28 99 
28 101 
28 103 
28 107 
28 119 
28 121 
28 123 
28 126 
28 136 
28 139 
28 144 
28 155 
28 158 
28 160 
28 168 
28 169 
28 174 
28 175 
29 30 
29 31 
29 40 
29 41 
29 58 
29 60 
29 70 
29 73 
29 78 
29 91 
29 95 
29 100 
29 108 
29 116 
29 121 
29 127 
29 128 
29 130 
29 134 
29 138 
29 140 
29 145 
29 147 
29 154 
29 161 
29 164 
29 168 
29 169 
29 170 
29 172 
30 31 
30 43 
30 45 
30 48 
30 53 
30 69 
30 79 
30 81 
30 86 
30 97 
30 100 
30 109 
30 111 
30 112 
30 115 
30 129 
30 132 
30 133 
30 135 
30 150 
30 151 
30 155 
30 165 
30 167 
30 169 
30 170 
30 171 
30 172 
30 173 
31 36 
31 37 
31 47 
31 57 
31 67 
31 70 
31 81 
31 83 
31 89 
31 96 
31 104 
31 109 
31 120 
31 126 
31 133 
31 134 
31 138 
31 142 
31 148 
31 152 
31 157 
31 159 
31 162 
31 166 
31 170 
31 174 
31 175 
31 176 
32 33 
32 34 
32 35 
32 36 
32 37 
32 38 
32 39 
32 40 
32 41 
32 42 
32 43 
32 44 
32 45 
32 46 
32 47 
32 48 
32 49 
32 50 
32 51 
32 52 
32 53 
32 54 
32 55 
32 56 
32 57 
32 58 
32 64 
32 74 
32 86 
32 94 
32 104 
32 113 
32 135 
32 136 
32 137 
32 138 
32 139 
32 140 
32 141 
33 34 
33 35 
33 36 
33 37 
33 38 
33 39 
33 40 
33 41 
33 42 
33 43 
33 44 
33 45 
33 46 
33 54 
33 59 
33 60 
33 61 
33 62 
33 63 
33 64 
33 65 
33 66 
33 67 
33 68 
33 69 
33 70 
33 77 
33 95 
33 105 
33 114 
33 123 
33 130 
33 142 
33 149 
33 150 
33 151 
33 152 
33 153 
34 35 
34 36 
34 37 
34 38 
34 39 
34 40 
34 41 
34 42 
34 43 
34 44 
34 45 
34 47 
34 54 
34 59 
34 67 
34 71 
34 72 
34 73 
34 74 
34 75 
34 76 
34 77 
34 78 
34 79 
34 80 
34 81 
34 84 
34 98 
34 107 
34 117 
34 132 
34 137 
34 145 
34 157 
34 160 
34 164 
34 165 
35 36 
35 37 
35 38 
35 39 
35 40 
35 41 
35 42 
35 43 
35 44 
35 45 
35 48 
35 55 
35 60 
35 65 
35 71 
35 78 
35 82 
35 83 
35 84 
35 85 
35 86 
35 87 
35 88 
35 89 
35 90 
35 91 
35 96 
35 105 
35 115 
35 124 
35 131 
35 136 
35 143 
35 154 
35 155 
35 156 
36 37 
36 38 
36 39 
36 40 
36 41 
36 42 
36 43 
36 44 
36 45 
36 47 
36 49 
36 70 
36 72 
36 82 
36 89 
36 92 
36 93 
36 94 
36 95 
36 96 
36 97 
36 98 
36 99 
36 100 
36 101 
36 104 
36 120 
36 126 
36 133 
36 148 
36 152 
36 157 
36 162 
36 170 
36 175 
37 38 
37 39 
37 40 
37 41 
37 42 
37 43 
37 44 
37 45 
37 51 
37 57 
37 61 
37 67 
37 74 
37 81 
37 83 
37 84 
37 92 
37 96 
37 109 
37 112 
37 122 
37 123 
37 124 
37 125 
37 126 
37 127 
37 128 
37 129 
37 134 
37 138 
37 142 
37 159 
37 166 
37 174 
37 176 
38 39 
38 40 
38 41 
38 42 
38 43 
38 44 
38 45 
38 52 
38 59 
38 63 
38 75 
38 85 
38 90 
38 93 
38 99 
38 103 
38 106 
38 113 
38 117 
38 122 
38 124 
38 130 
38 131 
38 132 
38 133 
38 134 
38 141 
38 146 
38 153 
38 162 
38 172 
38 173 
38 176 
39 40 
39 41 
39 42 
39 43 
39 44 
39 45 
39 50 
39 53 
39 62 
39 65 
39 71 
39 76 
39 87 
39 98 
39 114 
39 122 
39 127 
39 135 
39 140 
39 142 
39 143 
39 144 
39 145 
39 146 
39 147 
39 148 
39 158 
39 163 
39 167 
39 171 
39 175 
39 176 
40 41 
40 42 
40 43 
40 44 
40 45 
40 55 
40 64 
40 70 
40 75 
40 78 
40 88 
40 91 
40 95 
40 97 
40 106 
40 108 
40 116 
40 121 
40 125 
40 128 
40 134 
40 140 
40 144 
40 145 
40 149 
40 157 
40 158 
40 159 
40 161 
40 169 
40 172 
41 42 
41 43 
41 44 
41 45 
41 56 
41 58 
41 60 
41 66 
41 73 
41 79 
41 85 
41 94 
41 100 
41 102 
41 116 
41 125 
41 127 
41 130 
41 138 
41 143 
41 147 
41 150 
41 154 
41 160 
41 161 
41 162 
41 163 
41 164 
41 168 
41 170 
42 43 
42 44 
42 45 
42 52 
42 56 
42 63 
42 69 
42 80 
42 89 
42 91 
42 92 
42 101 
42 108 
42 110 
42 118 
42 119 
42 129 
42 137 
42 146 
42 148 
42 151 
42 153 
42 154 
42 156 
42 159 
42 163 
42 164 
42 166 
42 167 
43 44 
43 45 
43 48 
43 57 
43 68 
43 69 
43 77 
43 79 
43 87 
43 99 
43 100 
43 103 
43 109 
43 112 
43 119 
43 126 
43 133 
43 135 
43 136 
43 151 
43 155 
43 158 
43 160 
43 165 
43 168 
43 169 
43 171 
43 172 
44 45 
44 46 
44 51 
44 68 
44 72 
44 76 
44 88 
44 93 
44 110 
44 111 
44 118 
44 120 
44 128 
44 131 
44 139 
44 141 
44 147 
44 149 
44 152 
44 156 
44 161 
44 165 
44 166 
44 168 
44 171 
44 173 
44 174 
45 53 
45 58 
45 66 
45 80 
45 81 
45 86 
45 90 
45 97 
45 101 
45 107 
45 111 
45 115 
45 121 
45 123 
45 129 
45 132 
45 139 
45 144 
45 150 
45 155 
45 167 
45 169 
45 170 
45 173 
45 174 
45 175 
46 47 
46 48 
46 49 
46 50 
46 51 
46 52 
46 53 
46 54 
46 55 
46 56 
46 57 
46 58 
46 59 
46 60 
46 61 
46 62 
46 63 
46 64 
46 65 
46 66 
46 67 
46 68 
46 69 
46 70 
46 76 
46 88 
46 93 
46 111 
46 118 
46 128 
46 141 
46 152 
46 156 
46 165 
46 168 
46 174 
47 48 
47 49 
47 50 
47 51 
47 52 
47 53 
47 54 
47 55 
47 56 
47 57 
47 58 
47 59 
47 70 
47 71 
47 72 
47 73 
47 74 
47 75 
47 76 
47 77 
47 78 
47 79 
47 80 
47 81 
47 89 
47 104 
47 120 
47 126 
47 133 
47 148 
47 152 
47 157 
47 162 
47 170 
47 175 
48 49 
48 50 
48 51 
48 52 
48 53 
48 54 
48 55 
48 56 
48 57 
48 58 
48 60 
48 69 
48 71 
48 79 
48 82 
48 83 
48 84 
48 85 
48 86 
48 87 
48 88 
48 89 
48 90 
48 91 
48 100 
48 109 
48 112 
48 133 
48 135 
48 151 
48 155 
48 165 
48 171 
48 172 
49 50 
49 51 
49 52 
49 53 
49 54 
49 55 
49 56 
49 57 
49 58 
49 62 
49 72 
49 82 
49 83 
49 92 
49 93 
49 94 
49 95 
49 96 
49 97 
49 98 
49 99 
49 100 
49 101 
49 102 
49 112 
49 113 
49 114 
49 115 
49 116 
49 117 
49 118 
49 119 
49 120 
49 121 
50 51 
50 52 
50 53 
50 54 
50 55 
50 56 
50 57 
50 58 
50 61 
50 65 
50 71 
50 73 
50 82 
50 98 
50 102 
50 103 
50 104 
50 105 
50 106 
50 107 
50 108 
50 109 
50 110 
50 111 
50 114 
50 127 
50 140 
50 158 
50 163 
50 167 
50 171 
50 175 
50 176 
51 52 
51 53 
51 54 
51 55 
51 56 
51 57 
51 58 
51 61 
51 68 
51 72 
51 74 
51 84 
51 92 
51 110 
51 112 
51 120 
51 122 
51 123 
51 124 
51 125 
51 126 
51 127 
51 128 
51 129 
51 131 
51 139 
51 147 
51 149 
51 161 
51 166 
51 171 
51 173 
52 53 
52 54 
52 55 
52 56 
52 57 
52 58 
52 63 
52 69 
52 75 
52 85 
52 91 
52 93 
52 101 
52 103 
52 110 
52 113 
52 119 
52 122 
52 129 
52 130 
52 131 
52 132 
52 133 
52 134 
52 148 
52 153 
52 156 
52 159 
52 163 
52 164 
53 54 
53 55 
53 56 
53 57 
53 58 
53 62 
53 76 
53 81 
53 86 
53 87 
53 97 
53 111 
53 115 
53 122 
53 129 
53 132 
53 135 
53 142 
53 143 
53 144 
53 145 
53 146 
53 147 
53 148 
53 150 
53 167 
53 169 
53 170 
53 173 
54 55 
54 56 
54 57 
54 58 
54 67 
54 77 
54 84 
54 95 
54 98 
54 105 
54 107 
54 114 
54 117 
54 123 
54 130 
54 132 
54 137 
54 142 
54 145 
54 149 
54 150 
54 151 
54 152 
54 153 
54 157 
54 160 
54 164 
54 165 
55 56 
55 57 
55 58 
55 64 
55 65 
55 75 
55 78 
55 88 
55 96 
55 97 
55 105 
55 106 
55 115 
55 116 
55 124 
55 125 
55 131 
55 136 
55 143 
55 144 
55 149 
55 154 
55 155 
55 156 
55 157 
55 158 
55 159 
56 57 
56 58 
56 63 
56 66 
56 79 
56 80 
56 85 
56 89 
56 92 
56 94 
56 102 
56 108 
56 118 
56 125 
56 137 
56 143 
56 146 
56 150 
56 151 
56 154 
56 160 
56 161 
56 162 
56 163 
56 166 
56 167 
57 58 
57 67 
57 68 
57 77 
57 81 
57 83 
57 87 
57 96 
57 99 
57 103 
57 109 
57 119 
57 126 
57 134 
57 136 
57 138 
57 142 
57 158 
57 159 
57 160 
57 166 
57 168 
57 169 
57 174 
57 176 
58 60 
58 66 
58 73 
58 80 
58 90 
58 100 
58 101 
58 107 
58 116 
58 121 
58 123 
58 127 
58 130 
58 138 
58 139 
58 144 
58 147 
58 154 
58 155 
58 164 
58 168 
58 170 
58 174 
58 175 
59 60 
59 61 
59 62 
59 63 
59 64 
59 65 
59 66 
59 67 
59 68 
59 69 
59 70 
59 71 
59 72 
59 73 
59 74 
59 75 
59 76 
59 77 
59 78 
59 79 
59 80 
59 81 
59 90 
59 99 
59 106 
59 117 
59 124 
59 141 
59 146 
59 153 
59 162 
59 172 
59 173 
59 176 
60 61 
60 62 
60 63 
60 64 
60 65 
60 66 
60 67 
60 68 
60 69 
60 70 
60 71 
60 73 
60 82 
60 83 
60 84 
60 85 
60 86 
60 87 
60 88 
60 89 
60 90 
60 91 
60 100 
60 116 
60 127 
60 130 
60 138 
60 147 
60 154 
60 164 
60 168 
60 170 
61 62 
61 63 
61 64 
61 65 
61 66 
61 67 
61 68 
61 69 
61 70 
61 73 
61 74 
61 82 
61 84 
61 92 
61 102 
61 103 
61 104 
61 105 
61 106 
61 107 
61 108 
61 109 
61 110 
61 111 
61 112 
61 122 
61 123 
61 124 
61 125 
61 126 
61 127 
61 128 
61 129 
62 63 
62 64 
62 65 
62 66 
62 67 
62 68 
62 69 
62 70 
62 76 
62 83 
62 87 
62 102 
62 112 
62 113 
62 114 
62 115 
62 116 
62 117 
62 118 
62 119 
62 120 
62 121 
62 122 
62 135 
62 142 
62 143 
62 144 
62 145 
62 146 
62 147 
62 148 
63 64 
63 65 
63 66 
63 67 
63 68 
63 69 
63 70 
63 75 
63 80 
63 85 
63 89 
63 92 
63 93 
63 103 
63 108 
63 113 
63 118 
63 122 
63 130 
63 131 
63 132 
63 133 
63 134 
63 137 
63 146 
63 151 
63 154 
63 166 
63 167 
64 65 
64 66 
64 67 
64 68 
64 69 
64 70 
64 74 
64 75 
64 86 
64 88 
64 94 
64 97 
64 104 
64 106 
64 113 
64 116 
64 125 
64 135 
64 136 
64 137 
64 138 
64 139 
64 140 
64 141 
64 144 
64 149 
64 157 
64 158 
64 159 
65 66 
65 67 
65 68 
65 69 
65 70 
65 71 
65 78 
65 96 
65 98 
65 105 
65 114 
65 115 
65 124 
65 127 
65 131 
65 136 
65 140 
65 143 
65 154 
65 155 
65 156 
65 158 
65 163 
65 167 
65 171 
65 175 
65 176 
66 67 
66 68 
66 69 
66 70 
66 79 
66 80 
66 85 
66 90 
66 94 
66 101 
66 102 
66 107 
66 121 
66 123 
66 125 
66 139 
66 143 
66 144 
66 150 
66 155 
66 160 
66 161 
66 162 
66 163 
66 174 
66 175 
67 68 
67 69 
67 70 
67 81 
67 83 
67 84 
67 96 
67 98 
67 107 
67 109 
67 117 
67 132 
67 134 
67 137 
67 138 
67 142 
67 145 
67 157 
67 159 
67 160 
67 164 
67 165 
67 166 
67 174 
67 176 
68 69 
68 70 
68 72 
68 77 
68 87 
68 99 
68 103 
68 110 
68 119 
68 120 
68 126 
68 131 
68 136 
68 139 
68 147 
68 149 
68 158 
68 160 
68 161 
68 166 
68 168 
68 169 
68 171 
68 173 
69 70 
69 79 
69 91 
69 100 
69 101 
69 109 
69 110 
69 112 
69 119 
69 129 
69 133 
69 135 
69 148 
69 151 
69 153 
69 155 
69 156 
69 159 
69 163 
69 164 
69 165 
69 171 
69 172 
70 78 
70 89 
70 91 
70 95 
70 104 
70 108 
70 120 
70 121 
70 126 
70 128 
70 133 
70 134 
70 140 
70 145 
70 148 
70 152 
70 157 
70 161 
70 162 
70 169 
70 170 
70 172 
70 175 
71 72 
71 73 
71 74 
71 75 
71 76 
71 77 
71 78 
71 79 
71 80 
71 81 
71 82 
71 83 
71 84 
71 85 
71 86 
71 87 
71 88 
71 89 
71 90 
71 91 
71 98 
71 114 
71 127 
71 140 
71 158 
71 163 
71 167 
71 171 
71 175 
71 176 
72 73 
72 74 
72 75 
72 76 
72 77 
72 78 
72 79 
72 80 
72 81 
72 82 
72 92 
72 93 
72 94 
72 95 
72 96 
72 97 
72 98 
72 99 
72 100 
72 101 
72 110 
72 120 
72 131 
72 139 
72 147 
72 149 
72 161 
72 166 
72 171 
72 173 
73 74 
73 75 
73 76 
73 77 
73 78 
73 79 
73 80 
73 81 
73 82 
73 100 
73 102 
73 103 
73 104 
73 105 
73 106 
73 107 
73 108 
73 109 
73 110 
73 111 
73 116 
73 127 
73 130 
73 138 
73 147 
73 154 
73 164 
73 168 
73 170 
74 75 
74 76 
74 77 
74 78 
74 79 
74 80 
74 81 
74 84 
74 86 
74 92 
74 94 
74 104 
74 112 
74 113 
74 122 
74 123 
74 124 
74 125 
74 126 
74 127 
74 128 
74 129 
74 135 
74 136 
74 137 
74 138 
74 139 
74 140 
74 141 
75 76 
75 77 
75 78 
75 79 
75 80 
75 81 
75 85 
75 88 
75 93 
75 97 
75 103 
75 106 
75 113 
75 116 
75 122 
75 125 
75 130 
75 131 
75 132 
75 133 
75 134 
75 144 
75 149 
75 157 
75 158 
75 159 
76 77 
76 78 
76 79 
76 80 
76 81 
76 87 
76 88 
76 93 
76 111 
76 118 
76 122 
76 128 
76 135 
76 141 
76 142 
76 143 
76 144 
76 145 
76 146 
76 147 
76 148 
76 152 
76 156 
76 165 
76 168 
76 174 
77 78 
77 79 
77 80 
77 81 
77 87 
77 95 
77 99 
77 103 
77 105 
77 114 
77 119 
77 123 
77 126 
77 130 
77 136 
77 142 
77 149 
77 150 
77 151 
77 152 
77 153 
77 158 
77 160 
77 168 
77 169 
78 79 
78 80 
78 81 
78 91 
78 95 
78 96 
78 105 
78 108 
78 115 
78 121 
78 124 
78 128 
78 131 
78 134 
78 136 
78 140 
78 143 
78 145 
78 154 
78 155 
78 156 
78 161 
78 169 
78 172 
79 80 
79 81 
79 85 
79 94 
79 100 
79 102 
79 109 
79 112 
79 125 
79 133 
79 135 
79 143 
79 150 
79 151 
79 155 
79 160 
79 161 
79 162 
79 163 
79 165 
79 171 
79 172 
80 81 
80 89 
80 90 
80 92 
80 101 
80 107 
80 108 
80 118 
80 121 
80 123 
80 137 
80 139 
80 144 
80 146 
80 151 
80 154 
80 155 
80 166 
80 167 
80 174 
80 175 
81 83 
81 86 
81 96 
81 97 
81 109 
81 111 
81 115 
81 129 
81 132 
81 134 
81 138 
81 142 
81 150 
81 159 
81 166 
81 167 
81 169 
81 170 
81 173 
81 174 
81 176 
82 83 
82 84 
82 85 
82 86 
82 87 
82 88 
82 89 
82 90 
82 91 
82 92 
82 93 
82 94 
82 95 
82 96 
82 97 
82 98 
82 99 
82 100 
82 101 
82 102 
82 103 
82 104 
82 105 
82 106 
82 107 
82 108 
82 109 
82 110 
82 111 
83 84 
83 85 
83 86 
83 87 
83 88 
83 89 
83 90 
83 91 
83 96 
83 102 
83 109 
83 112 
83 113 
83 114 
83 115 
83 116 
83 117 
83 118 
83 119 
83 120 
83 121 
83 134 
83 138 
83 142 
83 159 
83 166 
83 174 
83 176 
84 85 
84 86 
84 87 
84 88 
84 89 
84 90 
84 91 
84 92 
84 98 
84 107 
84 112 
84 117 
84 122 
84 123 
84 124 
84 125 
84 126 
84 127 
84 128 
84 129 
84 132 
84 137 
84 145 
84 157 
84 160 
84 164 
84 165 
85 86 
85 87 
85 88 
85 89 
85 90 
85 91 
85 93 
85 94 
85 102 
85 103 
85 113 
85 122 
85 125 
85 130 
85 131 
85 132 
85 133 
85 134 
85 143 
85 150 
85 160 
85 161 
85 162 
85 163 
86 87 
86 88 
86 89 
86 90 
86 91 
86 94 
86 97 
86 104 
86 111 
86 113 
86 115 
86 129 
86 132 
86 135 
86 136 
86 137 
86 138 
86 139 
86 140 
86 141 
86 150 
86 167 
86 169 
86 170 
86 173 
87 88 
87 89 
87 90 
87 91 
87 99 
87 103 
87 119 
87 122 
87 126 
87 135 
87 136 
87 142 
87 143 
87 144 
87 145 
87 146 
87 147 
87 148 
87 158 
87 160 
87 168 
87 169 
88 89 
88 90 
88 91 
88 93 
88 97 
88 106 
88 111 
88 116 
88 118 
88 125 
88 128 
88 141 
88 144 
88 149 
88 152 
88 156 
88 157 
88 158 
88 159 
88 165 
88 168 
88 174 
89 90 
89 91 
89 92 
89 104 
89 108 
89 118 
89 120 
89 126 
89 133 
89 137 
89 146 
89 148 
89 151 
89 152 
89 154 
89 157 
89 162 
89 166 
89 167 
89 170 
89 175 
90 91 
90 99 
90 101 
90 106 
90 107 
90 117 
90 121 
90 123 
90 124 
90 139 
90 141 
90 144 
90 146 
90 153 
90 155 
90 162 
90 172 
90 173 
90 174 
90 175 
90 176 
91 95 
91 101 
91 108 
91 110 
91 119 
91 121 
91 128 
91 129 
91 134 
91 140 
91 145 
91 148 
91 153 
91 156 
91 159 
91 161 
91 163 
91 164 
91 169 
91 172 
92 93 
92 94 
92 95 
92 96 
92 97 
92 98 
92 99 
92 100 
92 101 
92 108 
92 112 
92 118 
92 122 
92 123 
92 124 
92 125 
92 126 
92 127 
92 128 
92 129 
92 137 
92 146 
92 151 
92 154 
92 166 
92 167 
93 94 
93 95 
93 96 
93 97 
93 98 
93 99 
93 100 
93 101 
93 103 
93 111 
93 113 
93 118 
93 122 
93 128 
93 130 
93 131 
93 132 
93 133 
93 134 
93 141 
93 152 
93 156 
93 165 
93 168 
93 174 
94 95 
94 96 
94 97 
94 98 
94 99 
94 100 
94 101 
94 102 
94 104 
94 113 
94 125 
94 135 
94 136 
94 137 
94 138 
94 139 
94 140 
94 141 
94 143 
94 150 
94 160 
94 161 
94 162 
94 163 
95 96 
95 97 
95 98 
95 99 
95 100 
95 101 
95 105 
95 108 
95 114 
95 121 
95 123 
95 128 
95 130 
95 134 
95 140 
95 142 
95 145 
95 149 
95 150 
95 151 
95 152 
95 153 
95 161 
95 169 
95 172 
96 97 
96 98 
96 99 
96 100 
96 101 
96 105 
96 109 
96 115 
96 124 
96 131 
96 134 
96 136 
96 138 
96 142 
96 143 
96 154 
96 155 
96 156 
96 159 
96 166 
96 174 
96 176 
97 98 
97 99 
97 100 
97 101 
97 106 
97 111 
97 115 
97 116 
97 125 
97 129 
97 132 
97 144 
97 149 
97 150 
97 157 
97 158 
97 159 
97 167 
97 169 
97 170 
97 173 
98 99 
98 100 
98 101 
98 107 
98 114 
98 117 
98 127 
98 132 
98 137 
98 140 
98 145 
98 157 
98 158 
98 160 
98 163 
98 164 
98 165 
98 167 
98 171 
98 175 
98 176 
99 100 
99 101 
99 103 
99 106 
99 117 
99 119 
99 124 
99 126 
99 136 
99 141 
99 146 
99 153 
99 158 
99 160 
99 162 
99 168 
99 169 
99 172 
99 173 
99 176 
100 101 
100 109 
100 112 
100 116 
100 127 
100 130 
100 133 
100 135 
100 138 
100 147 
100 151 
100 154 
100 155 
100 164 
100 165 
100 168 
100 170 
100 171 
100 172 
101 107 
101 110 
101 119 
101 121 
101 123 
101 129 
101 139 
101 144 
101 148 
101 153 
101 155 
101 156 
101 159 
101 163 
101 164 
101 174 
101 175 
102 103 
102 104 
102 105 
102 106 
102 107 
102 108 
102 109 
102 110 
102 111 
102 112 
102 113 
102 114 
102 115 
102 116 
102 117 
102 118 
102 119 
102 120 
102 121 
102 125 
102 143 
102 150 
102 160 
102 161 
102 162 
102 163 
103 104 
103 105 
103 106 
103 107 
103 108 
103 109 
103 110 
103 111 
103 113 
103 119 
103 122 
103 126 
103 130 
103 131 
103 132 
103 133 
103 134 
103 136 
103 158 
103 160 
103 168 
103 169 
104 105 
104 106 
104 107 
104 108 
104 109 
104 110 
104 111 
104 113 
104 120 
104 126 
104 133 
104 135 
104 136 
104 137 
104 138 
104 139 
104 140 
104 141 
104 148 
104 152 
104 157 
104 162 
104 170 
104 175 
105 106 
105 107 
105 108 
105 109 
105 110 
105 111 
105 114 
105 115 
105 123 
105 124 
105 130 
105 131 
105 136 
105 142 
105 143 
105 149 
105 150 
105 151 
105 152 
105 153 
105 154 
105 155 
105 156 
106 107 
106 108 
106 109 
106 110 
106 111 
106 116 
106 117 
106 124 
106 125 
106 141 
106 144 
106 146 
106 149 
106 153 
106 157 
106 158 
106 159 
106 162 
106 172 
106 173 
106 176 
107 108 
107 109 
107 110 
107 111 
107 117 
107 121 
107 123 
107 132 
107 137 
107 139 
107 144 
107 145 
107 155 
107 157 
107 160 
107 164 
107 165 
107 174 
107 175 
108 109 
108 110 
108 111 
108 118 
108 121 
108 128 
108 134 
108 137 
108 140 
108 145 
108 146 
108 151 
108 154 
108 161 
108 166 
108 167 
108 169 
108 172 
109 110 
109 111 
109 112 
109 133 
109 134 
109 135 
109 138 
109 142 
109 151 
109 155 
109 159 
109 165 
109 166 
109 171 
109 172 
109 174 
109 176 
110 111 
110 119 
110 120 
110 129 
110 131 
110 139 
110 147 
110 148 
110 149 
110 153 
110 156 
110 159 
110 161 
110 163 
110 164 
110 166 
110 171 
110 173 
111 115 
111 118 
111 128 
111 129 
111 132 
111 141 
111 150 
111 152 
111 156 
111 165 
111 167 
111 168 
111 169 
111 170 
111 173 
111 174 
112 113 
112 114 
112 115 
112 116 
112 117 
112 118 
112 119 
112 120 
112 121 
112 122 
112 123 
112 124 
112 125 
112 126 
112 127 
112 128 
112 129 
112 133 
112 135 
112 151 
112 155 
112 165 
112 171 
112 172 
113 114 
113 115 
113 116 
113 117 
113 118 
113 119 
113 120 
113 121 
113 122 
113 130 
113 131 
113 132 
113 133 
113 134 
113 135 
113 136 
113 137 
113 138 
113 139 
113 140 
113 141 
114 115 
114 116 
114 117 
114 118 
114 119 
114 120 
114 121 
114 123 
114 127 
114 130 
114 140 
114 142 
114 149 
114 150 
114 151 
114 152 
114 153 
114 158 
114 163 
114 167 
114 171 
114 175 
114 176 
115 116 
115 117 
115 118 
115 119 
115 120 
115 121 
115 124 
115 129 
115 131 
115 132 
115 136 
115 143 
115 150 
115 154 
115 155 
115 156 
115 167 
115 169 
115 170 
115 173 
116 117 
116 118 
116 119 
116 120 
116 121 
116 125 
116 127 
116 130 
116 138 
116 144 
116 147 
116 149 
116 154 
116 157 
116 158 
116 159 
116 164 
116 168 
116 170 
117 118 
117 119 
117 120 
117 121 
117 124 
117 132 
117 137 
117 141 
117 145 
117 146 
117 153 
117 157 
117 160 
117 162 
117 164 
117 165 
117 172 
117 173 
117 176 
118 119 
118 120 
118 121 
118 128 
118 137 
118 141 
118 146 
118 151 
118 152 
118 154 
118 156 
118 165 
118 166 
118 167 
118 168 
118 174 
119 120 
119 121 
119 126 
119 129 
119 136 
119 148 
119 153 
119 156 
119 158 
119 159 
119 160 
119 163 
119 164 
119 168 
119 169 
120 121 
120 126 
120 131 
120 133 
120 139 
120 147 
120 148 
120 149 
120 152 
120 157 
120 161 
120 162 
120 166 
120 170 
120 171 
120 173 
120 175 
121 123 
121 128 
121 134 
121 139 
121 140 
121 144 
121 145 
121 155 
121 161 
121 169 
121 172 
121 174 
121 175 
122 123 
122 124 
122 125 
122 126 
122 127 
122 128 
122 129 
122 130 
122 131 
122 132 
122 133 
122 134 
122 135 
122 142 
122 143 
122 144 
122 145 
122 146 
122 147 
122 148 
123 124 
123 125 
123 126 
123 127 
123 128 
123 129 
123 130 
123 139 
123 142 
123 144 
123 149 
123 150 
123 151 
123 152 
123 153 
123 155 
123 174 
123 175 
124 125 
124 126 
124 127 
124 128 
124 129 
124 131 
124 136 
124 141 
124 143 
124 146 
124 153 
124 154 
124 155 
124 156 
124 162 
124 172 
124 173 
124 176 
125 126 
125 127 
125 128 
125 129 
125 143 
125 144 
125 149 
125 150 
125 157 
125 158 
125 159 
125 160 
125 161 
125 162 
125 163 
126 127 
126 128 
126 129 
126 133 
126 136 
126 148 
126 152 
126 157 
126 158 
126 160 
126 162 
126 168 
126 169 
126 170 
126 175 
127 128 
127 129 
127 130 
127 138 
127 140 
127 147 
127 154 
127 158 
127 163 
127 164 
127 167 
127 168 
127 170 
127 171 
127 175 
127 176 
128 129 
128 134 
128 140 
128 141 
128 145 
128 152 
128 156 
128 161 
128 165 
128 168 
128 169 
128 172 
128 174 
129 132 
129 148 
129 150 
129 153 
129 156 
129 159 
129 163 
129 164 
129 167 
129 169 
129 170 
129 173 
130 131 
130 132 
130 133 
130 134 
130 138 
130 142 
130 147 
130 149 
130 150 
130 151 
130 152 
130 153 
130 154 
130 164 
130 168 
130 170 
131 132 
131 133 
131 134 
131 136 
131 139 
131 143 
131 147 
131 149 
131 154 
131 155 
131 156 
131 161 
131 166 
131 171 
131 173 
132 133 
132 134 
132 137 
132 145 
132 150 
132 157 
132 160 
132 164 
132 165 
132 167 
132 169 
132 170 
132 173 
133 134 
133 135 
133 148 
133 151 
133 152 
133 155 
133 157 
133 162 
133 165 
133 170 
133 171 
133 172 
133 175 
134 138 
134 140 
134 142 
134 145 
134 159 
134 161 
134 166 
134 169 
134 172 
134 174 
134 176 
135 136 
135 137 
135 138 
135 139 
135 140 
135 141 
135 142 
135 143 
135 144 
135 145 
135 146 
135 147 
135 148 
135 151 
135 155 
135 165 
135 171 
135 172 
136 137 
136 138 
136 139 
136 140 
136 141 
136 143 
136 154 
136 155 
136 156 
136 158 
136 160 
136 168 
136 169 
137 138 
137 139 
137 140 
137 141 
137 145 
137 146 
137 151 
137 154 
137 157 
137 160 
137 164 
137 165 
137 166 
137 167 
138 139 
138 140 
138 141 
138 142 
138 147 
138 154 
138 159 
138 164 
138 166 
138 168 
138 170 
138 174 
138 176 
139 140 
139 141 
139 144 
139 147 
139 149 
139 155 
139 161 
139 166 
139 171 
139 173 
139 174 
139 175 
140 141 
140 145 
140 158 
140 161 
140 163 
140 167 
140 169 
140 171 
140 172 
140 175 
140 176 
141 146 
141 152 
141 153 
141 156 
141 162 
141 165 
141 168 
141 172 
141 173 
141 174 
141 176 
142 143 
142 144 
142 145 
142 146 
142 147 
142 148 
142 149 
142 150 
142 151 
142 152 
142 153 
142 159 
142 166 
142 174 
142 176 
143 144 
143 145 
143 146 
143 147 
143 148 
143 150 
143 154 
143 155 
143 156 
143 160 
143 161 
143 162 
143 163 
144 145 
144 146 
144 147 
144 148 
144 149 
144 155 
144 157 
144 158 
144 159 
144 174 
144 175 
145 146 
145 147 
145 148 
145 157 
145 160 
145 161 
145 164 
145 165 
145 169 
145 172 
146 147 
146 148 
146 151 
146 153 
146 154 
146 162 
146 166 
146 167 
146 172 
146 173 
146 176 
147 148 
147 149 
147 154 
147 161 
147 164 
147 166 
147 168 
147 170 
147 171 
147 173 
148 152 
148 153 
148 156 
148 157 
148 159 
148 162 
148 163 
148 164 
148 170 
148 175 
149 150 
149 151 
149 152 
149 153 
149 157 
149 158 
149 159 
149 161 
149 166 
149 171 
149 173 
150 151 
150 152 
150 153 
150 160 
150 161 
150 162 
150 163 
150 167 
150 169 
150 170 
150 173 
151 152 
151 153 
151 154 
151 155 
151 165 
151 166 
151 167 
151 171 
151 172 
152 153 
152 156 
152 157 
152 162 
152 165 
152 168 
152 170 
152 174 
152 175 
153 156 
153 159 
153 162 
153 163 
153 164 
153 172 
153 173 
153 176 
154 155 
154 156 
154 164 
154 166 
154 167 
154 168 
154 170 
155 156 
155 165 
155 171 
155 172 
155 174 
155 175 
156 159 
156 163 
156 164 
156 165 
156 168 
156 174 
157 158 
157 159 
157 160 
157 162 
157 164 
157 165 
157 170 
157 175 
158 159 
158 160 
158 163 
158 167 
158 168 
158 169 
158 171 
158 175 
158 176 
159 163 
159 164 
159 166 
159 174 
159 176 
160 161 
160 162 
160 163 
160 164 
160 165 
160 168 
160 169 
161 162 
161 163 
161 166 
161 169 
161 171 
161 172 
161 173 
162 163 
162 170 
162 172 
162 173 
162 175 
162 176 
163 164 
163 167 
163 171 
163 175 
163 176 
164 165 
164 168 
164 170 
165 168 
165 171 
165 172 
165 174 
166 167 
166 171 
166 173 
166 174 
166 176 
167 169 
167 170 
167 171 
167 173 
167 175 
167 176 
168 169 
168 170 
168 174 
169 170 
169 172 
169 173 
170 173 
170 175 
171 172 
171 173 
171 175 
171 176 
172 173 
172 176 
173 176 
174 175 
174 176 
175 176 
